nodes = 72;
edges = 396;
starts = [1, 1, 1, 1, 2, 2, 2, 3, 3, 3, 3, 4, 4, 5, 5, 5, 6, 6, 6, 6, 7, 8, 8, 8, 9, 9, 9, 9, 10, 11, 12, 12, 12, 12, 13, 13, 13, 14, 14, 14, 15, 15, 16, 16, 16, 16, 17, 17, 18, 18, 18, 19, 20, 21, 21, 21, 22, 22, 23, 23, 23, 24, 24, 24, 25, 25, 25, 26, 26, 26, 26, 27, 27, 27, 28, 28, 28, 29, 29, 29, 30, 30, 30, 31, 31, 31, 31, 32, 32, 32, 33, 33, 33, 34, 34, 34, 35, 35, 35, 36, 36, 37, 37, 37, 38, 39, 39, 39, 40, 41, 42, 43, 43, 43, 44, 45, 45, 45, 46, 46, 46, 47, 47, 47, 47, 48, 48, 48, 49, 49, 49, 50, 50, 50, 51, 51, 51, 52, 52, 52, 53, 53, 53, 54, 54, 54, 55, 55, 56, 56, 56, 57, 57, 58, 58, 58, 59, 59, 59, 60, 60, 60, 60, 61, 61, 61, 62, 62, 62, 63, 63, 63, 64, 64, 64, 64, 65, 65, 65, 66, 66, 66, 67, 67, 67, 68, 68, 68, 69, 69, 70, 70, 71, 71, 71, 72, 72, 72, 4, 6, 31, 55, 45, 57, 71, 12, 31, 46, 68, 1, 32, 39, 60, 72, 1, 9, 54, 68, 70, 13, 18, 63, 6, 51, 52, 64, 21, 53, 3, 35, 58, 64, 8, 15, 23, 43, 60, 65, 13, 17, 18, 47, 48, 65, 15, 33, 8, 16, 43, 62, 27, 10, 22, 56, 21, 29, 13, 24, 33, 23, 25, 34, 24, 26, 37, 25, 27, 30, 37, 20, 26, 28, 27, 29, 40, 22, 28, 44, 26, 56, 63, 1, 3, 32, 45, 4, 31, 57, 17, 23, 34, 24, 33, 37, 12, 39, 59, 47, 70, 25, 26, 34, 62, 5, 35, 71, 28, 56, 53, 14, 18, 61, 29, 2, 31, 46, 3, 45, 58, 16, 36, 49, 63, 16, 49, 51, 47, 48, 50, 49, 51, 52, 9, 48, 50, 9, 50, 54, 11, 42, 72, 6, 52, 55, 1, 54, 21, 30, 41, 2, 32, 12, 46, 71, 35, 60, 67, 5, 14, 59, 66, 43, 62, 69, 19, 38, 61, 8, 30, 47, 9, 12, 67, 68, 14, 16, 66, 60, 65, 67, 59, 64, 66, 3, 6, 64, 61, 72, 7, 36, 2, 39, 58, 5, 53, 69];
ends = [4, 6, 31, 55, 45, 57, 71, 12, 31, 46, 68, 1, 32, 39, 60, 72, 1, 9, 54, 68, 70, 13, 18, 63, 6, 51, 52, 64, 21, 53, 3, 35, 58, 64, 8, 15, 23, 43, 60, 65, 13, 17, 18, 47, 48, 65, 15, 33, 8, 16, 43, 62, 27, 10, 22, 56, 21, 29, 13, 24, 33, 23, 25, 34, 24, 26, 37, 25, 27, 30, 37, 20, 26, 28, 27, 29, 40, 22, 28, 44, 26, 56, 63, 1, 3, 32, 45, 4, 31, 57, 17, 23, 34, 24, 33, 37, 12, 39, 59, 47, 70, 25, 26, 34, 62, 5, 35, 71, 28, 56, 53, 14, 18, 61, 29, 2, 31, 46, 3, 45, 58, 16, 36, 49, 63, 16, 49, 51, 47, 48, 50, 49, 51, 52, 9, 48, 50, 9, 50, 54, 11, 42, 72, 6, 52, 55, 1, 54, 21, 30, 41, 2, 32, 12, 46, 71, 35, 60, 67, 5, 14, 59, 66, 43, 62, 69, 19, 38, 61, 8, 30, 47, 9, 12, 67, 68, 14, 16, 66, 60, 65, 67, 59, 64, 66, 3, 6, 64, 61, 72, 7, 36, 2, 39, 58, 5, 53, 69, 1, 1, 1, 1, 2, 2, 2, 3, 3, 3, 3, 4, 4, 5, 5, 5, 6, 6, 6, 6, 7, 8, 8, 8, 9, 9, 9, 9, 10, 11, 12, 12, 12, 12, 13, 13, 13, 14, 14, 14, 15, 15, 16, 16, 16, 16, 17, 17, 18, 18, 18, 19, 20, 21, 21, 21, 22, 22, 23, 23, 23, 24, 24, 24, 25, 25, 25, 26, 26, 26, 26, 27, 27, 27, 28, 28, 28, 29, 29, 29, 30, 30, 30, 31, 31, 31, 31, 32, 32, 32, 33, 33, 33, 34, 34, 34, 35, 35, 35, 36, 36, 37, 37, 37, 38, 39, 39, 39, 40, 41, 42, 43, 43, 43, 44, 45, 45, 45, 46, 46, 46, 47, 47, 47, 47, 48, 48, 48, 49, 49, 49, 50, 50, 50, 51, 51, 51, 52, 52, 52, 53, 53, 53, 54, 54, 54, 55, 55, 56, 56, 56, 57, 57, 58, 58, 58, 59, 59, 59, 60, 60, 60, 60, 61, 61, 61, 62, 62, 62, 63, 63, 63, 64, 64, 64, 64, 65, 65, 65, 66, 66, 66, 67, 67, 67, 68, 68, 68, 69, 69, 70, 70, 71, 71, 71, 72, 72, 72];
weights = [33, 36, 147, 142, 20, 33, 71, 35, 36, 68, 108, 33, 147, 39, 63, 49, 36, 35, 143, 39, 36, 52, 72, 72, 35, 33, 144, 38, 69, 107, 35, 33, 66, 108, 52, 133, 39, 45, 36, 107, 133, 36, 44, 145, 35, 39, 36, 51, 72, 44, 146, 50, 132, 69, 51, 24, 51, 54, 39, 29, 75, 29, 37, 77, 37, 35, 79, 35, 38, 48, 111, 132, 38, 31, 31, 33, 77, 54, 33, 67, 48, 135, 70, 147, 36, 32, 69, 147, 32, 94, 51, 75, 31, 77, 31, 37, 33, 70, 3, 40, 36, 79, 111, 37, 23, 39, 70, 36, 77, 8, 15, 45, 146, 44, 67, 20, 69, 36, 68, 36, 33, 145, 40, 35, 47, 35, 145, 38, 35, 145, 34, 34, 145, 38, 33, 38, 145, 144, 38, 35, 107, 15, 53, 143, 35, 36, 142, 36, 24, 135, 8, 33, 94, 66, 33, 11, 3, 33, 108, 63, 36, 33, 107, 44, 55, 32, 50, 23, 55, 72, 70, 47, 38, 108, 35, 35, 107, 39, 35, 107, 35, 36, 108, 35, 36, 108, 39, 35, 32, 64, 36, 36, 71, 36, 11, 49, 53, 64, 33, 36, 147, 142, 20, 33, 71, 35, 36, 68, 108, 33, 147, 39, 63, 49, 36, 35, 143, 39, 36, 52, 72, 72, 35, 33, 144, 38, 69, 107, 35, 33, 66, 108, 52, 133, 39, 45, 36, 107, 133, 36, 44, 145, 35, 39, 36, 51, 72, 44, 146, 50, 132, 69, 51, 24, 51, 54, 39, 29, 75, 29, 37, 77, 37, 35, 79, 35, 38, 48, 111, 132, 38, 31, 31, 33, 77, 54, 33, 67, 48, 135, 70, 147, 36, 32, 69, 147, 32, 94, 51, 75, 31, 77, 31, 37, 33, 70, 3, 40, 36, 79, 111, 37, 23, 39, 70, 36, 77, 8, 15, 45, 146, 44, 67, 20, 69, 36, 68, 36, 33, 145, 40, 35, 47, 35, 145, 38, 35, 145, 34, 34, 145, 38, 33, 38, 145, 144, 38, 35, 107, 15, 53, 143, 35, 36, 142, 36, 24, 135, 8, 33, 94, 66, 33, 11, 3, 33, 108, 63, 36, 33, 107, 44, 55, 32, 50, 23, 55, 72, 70, 47, 38, 108, 35, 35, 107, 39, 35, 107, 35, 36, 108, 35, 36, 108, 39, 35, 32, 64, 36, 36, 71, 36, 11, 49, 53, 64];
start = 28;
end= 39;
tasks = 4;
task = array2d(1..tasks, 1..nodes, [0, 0, 0, 0, 0, 0, 0, 0, 0, 0, 0, 0, 0, 0, 0, 0, 0, 0, 0, 0, 0, 0, 0, 1, 0, 0, 0, 0, 0, 0, 0, 0, 0, 0, 0, 0, 0, 0, 0, 0, 0, 0, 0, 0, 0, 0, 0, 0, 0, 0, 0, 0, 0, 0, 0, 0, 0, 0, 1, 0, 0, 0, 0, 0, 0, 0, 0, 0, 0, 0, 0, 0, 0, 0, 0, 0, 0, 0, 0, 0, 0, 0, 0, 0, 0, 0, 0, 0, 0, 0, 0, 0, 0, 0, 0, 0, 1, 0, 0, 0, 0, 0, 0, 0, 0, 0, 0, 0, 0, 0, 0, 0, 0, 0, 0, 0, 0, 0, 0, 1, 0, 0, 0, 0, 0, 0, 0, 0, 0, 0, 0, 0, 0, 0, 0, 0, 0, 0, 0, 0, 0, 0, 0, 0, 0, 0, 0, 0, 0, 0, 0, 0, 0, 0, 0, 0, 0, 0, 0, 0, 0, 0, 0, 0, 0, 0, 0, 0, 0, 0, 0, 0, 0, 0, 0, 0, 1, 1, 0, 0, 0, 0, 0, 0, 0, 0, 0, 0, 0, 0, 0, 0, 0, 0, 0, 0, 0, 0, 0, 0, 0, 0, 0, 0, 0, 0, 0, 0, 0, 0, 0, 0, 0, 0, 0, 0, 0, 0, 0, 0, 0, 0, 0, 0, 0, 0, 0, 0, 0, 0, 0, 0, 0, 0, 0, 0, 0, 0, 0, 0, 0, 0, 0, 0, 0, 0, 0, 0, 0, 0, 0, 0, 1, 0, 0, 0, 0, 0, 0, 1, 0, 0, 0, 0, 0, 0, 0, 0, 0, 0, 0, 0, 0, 0, 0, 0, 0, 0, 0, 0, 0, 0, 0, 0, 0, 0, 0, 0]);
